Translating instance to solver...

Set parameter TimeLimit to value 28800
Gurobi Optimizer version 11.0.2 build v11.0.2rc0 (linux64 - "Ubuntu 22.04.4 LTS")

CPU model: Intel(R) Xeon(R) Gold 5120 CPU @ 2.20GHz, instruction set [SSE2|AVX|AVX2|AVX512]
Thread count: 28 physical cores, 56 logical processors, using up to 28 threads

Academic license 2463511 - for non-commercial use only - registered to lu___@cefet-rj.br
Optimize a model with 113275 rows, 53993 columns and 256388 nonzeros
Model fingerprint: 0x5fe54a2f
Variable types: 1 continuous, 53992 integer (53920 binary)
Coefficient statistics:
  Matrix range     [1e+00, 1e+05]
  Objective range  [3e-01, 8e-01]
  Bounds range     [1e+00, 7e+01]
  RHS range        [1e+00, 7e+01]
Presolve removed 92572 rows and 45510 columns
Presolve time: 1.84s
Presolved: 20703 rows, 8483 columns, 59951 nonzeros
Variable types: 0 continuous, 8483 integer (8412 binary)
Found heuristic solution: objective 38.5123700

Root relaxation: objective 1.223564e+00, 1142 iterations, 0.07 seconds (0.08 work units)

    Nodes    |    Current Node    |     Objective Bounds      |     Work
 Expl Unexpl |  Obj  Depth IntInf | Incumbent    BestBd   Gap | It/Node Time

     0     0    1.22356    0   24   38.51237    1.22356  96.8%     -    2s
H    0     0                      37.1623700    1.22356  96.7%     -    3s
H    0     0                       3.8148010    1.22356  67.9%     -    3s
     0     0    1.22356    0   54    3.81480    1.22356  67.9%     -    3s
H    0     0                       1.6735640    1.22356  26.9%     -    4s
     0     0    1.22356    0   47    1.67356    1.22356  26.9%     -    4s
     0     0    1.22356    0  105    1.67356    1.22356  26.9%     -    4s
     0     0    1.22356    0   27    1.67356    1.22356  26.9%     -    4s
     0     0    1.22356    0   75    1.67356    1.22356  26.9%     -    4s
     0     0    1.22356    0   92    1.67356    1.22356  26.9%     -    4s
     0     0    1.22356    0   22    1.67356    1.22356  26.9%     -    5s
     0     0    1.22356    0   64    1.67356    1.22356  26.9%     -    5s
     0     0    1.22356    0   20    1.67356    1.22356  26.9%     -    5s
     0     0    1.22356    0   59    1.67356    1.22356  26.9%     -    5s
     0     0    1.22356    0   30    1.67356    1.22356  26.9%     -    5s
     0     0    1.22356    0   76    1.67356    1.22356  26.9%     -    5s
     0     0    1.22356    0   35    1.67356    1.22356  26.9%     -    5s
     0     0    1.22356    0   35    1.67356    1.22356  26.9%     -    5s
     0     2    1.22356    0   35    1.67356    1.22356  26.9%     -    5s
  5953  2321    1.52946   33   50    1.67356    1.22356  26.9%  44.6   10s
  6134  2382    1.22356   22   86    1.67356    1.22356  26.9%  49.2   15s
  7853  2408     cutoff   35         1.67356    1.22356  26.9%  62.3   20s
 12999  1924 infeasible   48         1.67356    1.22356  26.9%  73.7   28s
 14873  2262    1.52946   37   41    1.67356    1.22356  26.9%  76.1   30s
 22080  2331    1.52946   31   29    1.67356    1.52945  8.61%  82.3   35s
 31841   484 infeasible   58         1.67356    1.52946  8.61%  89.2   40s

Cutting planes:
  Learned: 69
  Gomory: 4
  Implied bound: 8
  Clique: 2
  MIR: 2
  Flow cover: 3
  Zero half: 9
  RLT: 52
  Relax-and-lift: 1

Explored 35691 nodes (3282477 simplex iterations) in 42.77 seconds (32.63 work units)
Thread count was 28 (of 56 available processors)

Solution count 4: 1.67356 3.8148 37.1624 38.5124 

Optimal solution found (tolerance 1.00e-04)
Best objective 1.673564000000e+00, best bound 1.673564000000e+00, gap 0.0000%

Solver Wallclock Time (for this epsilon): 42.777008056640625 s
Python wallclock Time (for this epsilon): 51.2883095741272 s


Total Elapsed Time (since program call): 751.5593764781952 s

Results:

I = 1.6735639999999998 mA
C = 39.0 points
C ~= 15.600000000000001 km^2

Minimum Epsilon for this instance = 10
Maximum Epsilon for this instance = 100

Current Epsilon = 30


Preprocessing Time (for this epsilon): 0.011875629425048828 s


Updated solution vectors:
sol_I = [-1.223564,-1.223564,-1.6735639999999998]
sol_C = [24.0,20.0,39.0]
sol_eps = [10,20,30]
sol_gap = [0.0,0.0,0.0]
